Academic license - for non-commercial use only
Gurobi Optimizer version 9.0.3 build v9.0.3rc0 (mac64)
Optimize a model with 623674 rows, 601200 columns and 3502950 nonzeros
Model fingerprint: 0xf965cd54
Variable types: 0 continuous, 601200 integer (601200 binary)
Coefficient statistics:
  Matrix range     [1e+00, 1e+00]
  Objective range  [1e+01, 1e+05]
  Bounds range     [1e+00, 1e+00]
  RHS range        [1e+00, 1e+03]
Presolve removed 50 rows and 50 columns (presolve time = 5s) ...
Presolve removed 10050 rows and 50 columns (presolve time = 10s) ...
Presolve added 0 rows and 9950 columns
Presolve removed 50 rows and 0 columns
Presolve time: 12.16s
Presolved: 623624 rows, 611150 columns, 2532850 nonzeros
Variable types: 0 continuous, 611150 integer (611150 binary)
Found heuristic solution: objective 1755227.0000

Concurrent LP optimizer: dual simplex and barrier
Showing barrier log only...

Root barrier log...

Ordering time: 0.18s

Barrier statistics:
 Dense cols : 600
 AA' NZ     : 1.949e+06
 Factor NZ  : 1.286e+07 (roughly 600 MBytes of memory)
 Factor Ops : 5.972e+09 (less than 1 second per iteration)
 Threads    : 3

                  Objective                Residual
Iter       Primal          Dual         Primal    Dual     Compl     Time
   0   9.05724990e+08 -1.26500318e+09  7.08e+02 2.80e+01  3.35e+04    26s
   1   3.40702603e+06 -1.55315672e+09  2.31e+00 1.47e+03  9.34e+02    27s
   2   2.36083415e+06 -6.87626348e+08  6.97e-01 6.28e+02  3.94e+02    27s
   3   2.20916968e+06 -4.39589218e+08  4.57e-01 3.96e+02  2.50e+02    28s
   4   2.01557465e+06 -2.39556193e+08  1.29e-01 2.23e+02  1.35e+02    29s
   5   1.92208189e+06 -5.75165979e+06  4.12e-03 7.30e+00  4.24e+00    30s
   6   1.85595147e+06 -2.45109956e+06  2.63e-03 4.18e+00  2.38e+00    31s
   7   1.81583452e+06 -6.24354150e+05  2.09e-03 2.26e+00  1.35e+00    32s
   8   1.77830566e+06  4.62403804e+05  1.74e-03 1.11e+00  7.25e-01    33s
   9   1.75541316e+06  9.83359966e+05  1.55e-03 5.22e-01  4.24e-01    34s
  10   1.73760068e+06  1.17641453e+06  1.42e-03 3.83e-01  3.08e-01    35s
  11   1.70759577e+06  1.28827293e+06  1.21e-03 2.33e-01  2.30e-01    36s
  12   1.69478137e+06  1.34942815e+06  1.12e-03 1.77e-01  1.89e-01    37s
  13   1.66555177e+06  1.38921290e+06  9.26e-04 1.41e-01  1.51e-01    38s
  14   1.65287118e+06  1.42183540e+06  8.39e-04 1.07e-01  1.26e-01    40s
  15   1.65001812e+06  1.43153872e+06  8.19e-04 9.74e-02  1.20e-01    40s
  16   1.62538250e+06  1.45598206e+06  6.57e-04 7.62e-02  9.27e-02    42s
  17   1.61177314e+06  1.47678775e+06  5.66e-04 5.86e-02  7.38e-02    43s
  18   1.59548136e+06  1.48943504e+06  4.57e-04 4.37e-02  5.80e-02    44s
  19   1.59207396e+06  1.49610648e+06  4.37e-04 3.61e-02  5.24e-02    45s
  20   1.58226712e+06  1.50320479e+06  3.76e-04 2.72e-02  4.32e-02    46s
  21   1.57342528e+06  1.50809508e+06  3.20e-04 2.60e-02  3.57e-02    47s
  22   1.56480198e+06  1.51131172e+06  2.61e-04 2.16e-02  2.92e-02    48s
  23   1.55822128e+06  1.51413843e+06  2.19e-04 2.02e-02  2.41e-02    49s
  24   1.55467508e+06  1.51634313e+06  1.94e-04 1.67e-02  2.09e-02    50s
  25   1.55117707e+06  1.51831230e+06  1.71e-04 1.35e-02  1.79e-02    51s
  26   1.54796154e+06  1.51989690e+06  1.50e-04 1.12e-02  1.53e-02    52s
  27   1.54382018e+06  1.52108967e+06  1.21e-04 9.15e-03  1.24e-02    53s
  28   1.54093528e+06  1.52172010e+06  1.01e-04 8.32e-03  1.05e-02    54s
  29   1.53953928e+06  1.52279298e+06  9.06e-05 6.77e-03  9.14e-03    55s
  30   1.53778600e+06  1.52352427e+06  7.83e-05 5.62e-03  7.78e-03    56s
  31   1.53653071e+06  1.52415069e+06  6.88e-05 4.77e-03  6.75e-03    56s
  32   1.53574999e+06  1.52462525e+06  6.30e-05 4.17e-03  6.07e-03    57s
  33   1.53470395e+06  1.52483391e+06  5.53e-05 3.94e-03  5.39e-03    58s
  34   1.53413705e+06  1.52513822e+06  5.11e-05 3.51e-03  4.91e-03    59s
  35   1.53318875e+06  1.52543868e+06  4.35e-05 3.09e-03  4.23e-03    60s
  36   1.53273933e+06  1.52569064e+06  4.02e-05 2.75e-03  3.85e-03    61s
  37   1.53211257e+06  1.52592577e+06  3.54e-05 2.44e-03  3.38e-03    62s
  38   1.53173988e+06  1.52608447e+06  3.25e-05 2.24e-03  3.09e-03    63s
  39   1.53116353e+06  1.52625413e+06  2.80e-05 1.98e-03  2.68e-03    64s
  40   1.53099963e+06  1.52647636e+06  2.66e-05 1.75e-03  2.47e-03    65s
  41   1.53089551e+06  1.52658633e+06  2.58e-05 1.60e-03  2.35e-03    66s
  42   1.53028551e+06  1.52670256e+06  2.10e-05 1.43e-03  1.95e-03    67s
  43   1.53002189e+06  1.52677725e+06  1.90e-05 1.32e-03  1.77e-03    67s
  44   1.52982160e+06  1.52700330e+06  1.74e-05 9.43e-04  1.54e-03    68s
  45   1.52948307e+06  1.52708115e+06  1.49e-05 8.33e-04  1.31e-03    69s
  46   1.52932545e+06  1.52715812e+06  1.35e-05 7.19e-04  1.18e-03    70s
  47   1.52916974e+06  1.52721078e+06  1.23e-05 6.47e-04  1.07e-03    71s
  48   1.52901408e+06  1.52727636e+06  1.12e-05 5.62e-04  9.47e-04    72s
  49   1.52887285e+06  1.52731947e+06  9.93e-06 5.03e-04  8.47e-04    73s
  50   1.52872382e+06  1.52736556e+06  8.71e-06 4.48e-04  7.40e-04    74s
  51   1.52857361e+06  1.52740222e+06  7.49e-06 4.01e-04  6.39e-04    75s
  52   1.52847341e+06  1.52744105e+06  6.69e-06 3.51e-04  5.63e-04    75s
  53   1.52839935e+06  1.52747145e+06  6.06e-06 3.13e-04  5.06e-04    76s
  54   1.52831059e+06  1.52750068e+06  5.31e-06 2.72e-04  4.42e-04    77s
  55   1.52825738e+06  1.52754019e+06  4.84e-06 2.24e-04  3.91e-04    78s
  56   1.52820048e+06  1.52755808e+06  4.35e-06 1.99e-04  3.50e-04    79s
  57   1.52811254e+06  1.52757218e+06  3.62e-06 1.78e-04  2.95e-04    80s
  58   1.52807454e+06  1.52760451e+06  3.29e-06 1.32e-04  2.56e-04    80s
  59   1.52803263e+06  1.52762735e+06  2.95e-06 1.02e-04  2.21e-04    81s
  60   1.52799790e+06  1.52764077e+06  2.64e-06 8.56e-05  1.94e-04    82s
  61   1.52794190e+06  1.52765006e+06  2.14e-06 7.98e-05  1.59e-04    83s
  62   1.52790997e+06  1.52765572e+06  1.86e-06 7.18e-05  1.38e-04    84s
  63   1.52790350e+06  1.52765835e+06  1.80e-06 6.85e-05  1.34e-04    84s
  64   1.52789621e+06  1.52766055e+06  1.73e-06 6.58e-05  1.28e-04    85s
  65   1.52787499e+06  1.52766477e+06  1.54e-06 5.98e-05  1.15e-04    86s
  66   1.52786025e+06  1.52766828e+06  1.41e-06 5.48e-05  1.05e-04    87s
  67   1.52782269e+06  1.52767687e+06  1.07e-06 4.36e-05  7.94e-05    88s
  68   1.52780180e+06  1.52768158e+06  8.80e-07 3.69e-05  6.55e-05    89s
  69   1.52779119e+06  1.52768595e+06  7.87e-07 3.11e-05  5.73e-05    89s
  70   1.52777196e+06  1.52768845e+06  6.11e-07 2.74e-05  4.55e-05    90s
  71   1.52776714e+06  1.52769235e+06  5.65e-07 2.07e-05  4.07e-05    91s
  72   1.52775959e+06  1.52769278e+06  4.95e-07 2.02e-05  3.64e-05    92s
  73   1.52774902e+06  1.52769489e+06  3.94e-07 1.77e-05  2.95e-05    93s
  74   1.52774469e+06  1.52769671e+06  3.54e-07 1.54e-05  2.61e-05    94s
  75   1.52773955e+06  1.52769824e+06  3.04e-07 1.36e-05  2.25e-05    94s
  76   1.52773525e+06  1.52770019e+06  2.61e-07 1.12e-05  1.91e-05    95s
  77   1.52773320e+06  1.52770189e+06  2.40e-07 9.16e-06  1.71e-05    96s
  78   1.52772867e+06  1.52770296e+06  1.95e-07 7.80e-06  1.40e-05    97s
  79   1.52772633e+06  1.52770359e+06  1.72e-07 7.04e-06  1.24e-05    98s
  80   1.52772506e+06  1.52770403e+06  1.59e-07 6.49e-06  1.15e-05    99s
  81   1.52772054e+06  1.52770544e+06  1.13e-07 4.63e-06  8.22e-06    99s
  82   1.52771972e+06  1.52770560e+06  1.04e-07 4.45e-06  7.69e-06   100s
  83   1.52771796e+06  1.52770637e+06  8.66e-08 3.49e-06  6.31e-06   101s
  84   1.52771510e+06  1.52770651e+06  5.78e-08 3.33e-06  4.68e-06   102s
  85   1.52771324e+06  1.52770760e+06  3.84e-08 1.93e-06  3.07e-06   103s
  86   1.52771141e+06  1.52770829e+06  1.99e-08 1.17e-06  1.70e-06   103s
  87   1.52771072e+06  1.52770862e+06  1.30e-08 7.97e-07  1.15e-06   104s
  88   1.52771062e+06  1.52770878e+06  1.20e-08 6.19e-07  1.00e-06   105s
  89   1.52771032e+06  1.52770893e+06  9.03e-09 4.68e-07  7.57e-07   106s
  90   1.52770967e+06  1.52770925e+06  2.73e-09 2.13e-07  2.32e-07   106s
  91   1.52770958e+06  1.52770926e+06  1.85e-09 2.06e-07  1.75e-07   107s
  92   1.52770948e+06  1.52770931e+06  9.05e-10 1.04e-07  8.78e-08   108s
  93   1.52770941e+06  1.52770937e+06  9.49e-10 7.70e-09  1.89e-08   108s
  94   1.52770941e+06  1.52770937e+06  1.94e-08 7.29e-09  1.89e-08   109s
  95   1.52770941e+06  1.52770937e+06  3.71e-08 7.23e-09  1.89e-08   110s
  96   1.52770941e+06  1.52770937e+06  5.51e-08 4.75e-09  1.89e-08   111s

Barrier solved model in 96 iterations and 110.74 seconds
Optimal objective 1.52770941e+06


Root crossover log...

  262663 DPushes remaining with DInf 4.7882667e-05               111s
       0 DPushes remaining with DInf 0.0000000e+00               113s

    3599 PPushes remaining with PInf 0.0000000e+00               113s
       0 PPushes remaining with PInf 0.0000000e+00               114s

  Push phase complete: Pinf 0.0000000e+00, Dinf 5.1389160e-10    114s


Root simplex log...

Iteration    Objective       Primal Inf.    Dual Inf.      Time
   26788    1.5277094e+06   0.000000e+00   0.000000e+00    114s

Solved with barrier

Root relaxation: objective 1.527709e+06, 26788 iterations, 91.89 seconds
Total elapsed time = 117.57s
Total elapsed time = 121.26s

    Nodes    |    Current Node    |     Objective Bounds      |     Work
 Expl Unexpl |  Obj  Depth IntInf | Incumbent    BestBd   Gap | It/Node Time

     0     0 1527709.38    0 27023 1755227.00 1527709.38  13.0%     -  123s
H    0     0                    1545586.0000 1527709.38  1.16%     -  128s
H    0     0                    1545285.0000 1527709.38  1.14%     -  206s
     0     0 1527712.48    0 27001 1545285.00 1527712.48  1.14%     -  244s
     0     0 1527723.21    0 27146 1545285.00 1527723.21  1.14%     -  294s
     0     0 1527724.89    0 27121 1545285.00 1527724.89  1.14%     -  300s

Cutting planes:
  Gomory: 1
  Zero half: 43

Explored 1 nodes (42867 simplex iterations) in 300.13 seconds
Thread count was 8 (of 8 available processors)

Solution count 3: 1.54528e+06 1.54559e+06 1.75523e+06 

Time limit reached
Best objective 1.545285000000e+06, best bound 1.527724887202e+06, gap 1.1364%

User-callback calls 25179, time in user-callback 0.26 sec
Solution written to /Users/mdeboute/Desktop/Etudes/Master/M2/S9/GOPP/Projet/multi-period-flp/solution/instMulti_I50_J1000_T12_1_result.txt
